p cnf 375 1472
5 -3 0
2 -4 0
-5 7 0
-6 4 0
-7 9 0
-8 6 0
11 -9 0
8 -10 0
13 -11 0
10 -12 0
-13 15 0
-14 12 0
-15 17 0
-16 14 0
2 -1 0
1 4 0
17 -1 0
1 15 0
-4 -3 -1 0
3 4 -1 0
1 -6 -3 0
1 3 6 0
-6 -5 -1 0
5 -1 6 0
-8 1 -5 0
8 1 5 0
-8 -7 -1 0
8 -1 7 0
1 -7 -10 0
1 10 7 0
-10 -1 -9 0
9 10 -1 0
1 -12 -9 0
1 12 9 0
-12 -11 -1 0
11 12 -1 0
1 -14 -11 0
1 11 14 0
-14 -13 -1 0
13 -1 14 0
-16 1 -13 0
16 1 13 0
-16 -15 -1 0
16 -1 15 0
21 -19 0
18 -20 0
-21 23 0
-22 20 0
-23 25 0
-24 22 0
27 -25 0
24 -26 0
29 -27 0
26 -28 0
-29 31 0
-30 28 0
-31 33 0
-32 30 0
20 -1 0
1 18 0
-1 31 0
1 33 0
-22 -19 -1 0
19 -1 22 0
1 -20 -19 0
1 19 20 0
-24 -21 -1 0
24 21 -1 0
1 -22 -21 0
1 21 22 0
-23 -1 -26 0
26 -1 23 0
-24 1 -23 0
24 1 23 0
-28 -1 -25 0
25 28 -1 0
1 -26 -25 0
1 26 25 0
-30 -27 -1 0
27 -1 30 0
1 -28 -27 0
1 27 28 0
-32 -29 -1 0
32 29 -1 0
1 -30 -29 0
1 29 30 0
-32 1 -31 0
32 1 31 0
-36 38 0
35 -37 0
40 -38 0
-39 37 0
-40 42 0
39 -41 0
44 -42 0
41 -43 0
-44 46 0
43 -45 0
48 -46 0
-47 45 0
-48 50 0
47 -49 0
35 -34 0
34 39 0
50 -34 0
34 46 0
-37 -36 -34 0
36 37 -34 0
34 -36 -41 0
41 34 36 0
-39 -38 -34 0
38 -34 39 0
-38 34 -43 0
34 43 38 0
-40 -34 -41 0
40 41 -34 0
-40 34 -45 0
40 34 45 0
-43 -42 -34 0
42 43 -34 0
-47 34 -42 0
34 42 47 0
-45 -44 -34 0
44 45 -34 0
34 -44 -49 0
49 34 44 0
-47 -46 -34 0
46 -34 47 0
-48 -34 -49 0
48 49 -34 0
-52 54 0
51 -53 0
56 -54 0
-55 53 0
-56 58 0
55 -57 0
60 -58 0
57 -59 0
-60 62 0
59 -61 0
64 -62 0
-63 61 0
-64 66 0
63 -65 0
-34 55 0
34 51 0
62 -34 0
34 66 0
-52 -34 -57 0
57 52 -34 0
34 -53 -52 0
34 52 53 0
-54 -59 -34 0
54 59 -34 0
-54 34 -55 0
34 54 55 0
-56 -61 -34 0
56 61 -34 0
-56 34 -57 0
56 57 34 0
-63 -58 -34 0
58 -34 63 0
34 -59 -58 0
34 59 58 0
-60 -34 -65 0
65 60 -34 0
34 -61 -60 0
34 60 61 0
-62 34 -63 0
34 62 63 0
-64 34 -65 0
64 65 34 0
-69 71 0
-70 68 0
73 -71 0
-72 70 0
75 -73 0
72 -74 0
77 -75 0
74 -76 0
-77 79 0
-78 76 0
81 -79 0
-80 78 0
83 -81 0
80 -82 0
68 -67 0
74 67 0
83 -67 0
67 77 0
-70 -69 -67 0
69 -67 70 0
67 -76 -69 0
67 76 69 0
-72 -71 -67 0
72 -67 71 0
-71 -78 67 0
67 78 71 0
-67 -74 -73 0
73 74 -67 0
-80 67 -73 0
80 73 67 0
-76 -67 -75 0
75 76 -67 0
67 -75 -82 0
75 67 82 0
-78 -77 -67 0
77 -67 78 0
-80 -79 -67 0
80 -67 79 0
-67 -82 -81 0
81 82 -67 0
-85 87 0
-86 84 0
89 -87 0
-88 86 0
91 -89 0
88 -90 0
93 -91 0
90 -92 0
-93 95 0
-94 92 0
-95 97 0
-96 94 0
99 -97 0
96 -98 0
90 -67 0
67 84 0
93 -67 0
99 67 0
-85 -92 -67 0
85 -67 92 0
-86 67 -85 0
67 85 86 0
-87 -94 -67 0
-67 94 87 0
-88 -87 67 0
88 67 87 0
-96 -67 -89 0
96 89 -67 0
67 -90 -89 0
89 90 67 0
-67 -98 -91 0
98 91 -67 0
67 -92 -91 0
91 67 92 0
-94 67 -93 0
67 93 94 0
-96 -95 67 0
96 67 95 0
67 -98 -97 0
97 98 67 0
104 -102 0
-103 101 0
-104 106 0
103 -105 0
108 -106 0
105 -107 0
-108 110 0
107 -109 0
112 -110 0
-111 109 0
-112 114 0
111 -113 0
116 -114 0
113 -115 0
-100 101 0
100 109 0
116 -100 0
108 100 0
-103 -102 -100 0
-100 102 103 0
-111 -102 100 0
100 102 111 0
-104 -100 -105 0
104 105 -100 0
-104 100 -113 0
104 113 100 0
-100 -107 -106 0
106 107 -100 0
100 -115 -106 0
106 115 100 0
-108 -109 -100 0
108 -100 109 0
-111 -110 -100 0
-100 110 111 0
-112 -100 -113 0
112 113 -100 0
-100 -115 -114 0
114 115 -100 0
120 -118 0
-119 117 0
-120 122 0
119 -121 0
124 -122 0
121 -123 0
-124 126 0
123 -125 0
128 -126 0
-127 125 0
-128 130 0
127 -129 0
132 -130 0
129 -131 0
-100 125 0
100 117 0
124 -100 0
132 100 0
-127 -118 -100 0
-100 118 127 0
-119 -118 100 0
100 118 119 0
-120 -100 -129 0
120 129 -100 0
-120 100 -121 0
120 121 100 0
-100 -131 -122 0
122 131 -100 0
100 -123 -122 0
122 123 100 0
-124 -125 100 0
124 100 125 0
-127 -126 100 0
100 126 127 0
-128 100 -129 0
128 129 100 0
100 -131 -130 0
130 131 100 0
-135 137 0
-136 134 0
139 -137 0
136 -138 0
-139 141 0
138 -140 0
-141 143 0
-142 140 0
-143 145 0
-144 142 0
147 -145 0
144 -146 0
-147 149 0
146 -148 0
-133 134 0
144 133 0
-133 149 0
139 133 0
-136 -135 -133 0
136 -133 135 0
-135 133 -146 0
146 133 135 0
-133 -138 -137 0
137 138 -133 0
-148 133 -137 0
137 148 133 0
-133 -140 -139 0
140 -133 139 0
-142 -133 -141 0
-133 141 142 0
-144 -143 -133 0
144 -133 143 0
-133 -146 -145 0
145 146 -133 0
-133 -148 -147 0
148 -133 147 0
-151 153 0
-152 150 0
155 -153 0
152 -154 0
-155 157 0
154 -156 0
-157 159 0
-158 156 0
-159 161 0
-160 158 0
163 -161 0
160 -162 0
-163 165 0
162 -164 0
160 -133 0
133 150 0
-133 155 0
133 165 0
-151 -133 -162 0
162 -133 151 0
-152 -151 133 0
152 133 151 0
-133 -164 -153 0
153 -133 164 0
133 -154 -153 0
153 154 133 0
-155 -156 133 0
155 156 133 0
-158 -157 133 0
158 133 157 0
-160 -159 133 0
160 133 159 0
133 -162 -161 0
161 162 133 0
-163 133 -164 0
163 164 133 0
-168 170 0
167 -169 0
172 -170 0
169 -171 0
-172 174 0
-173 171 0
176 -174 0
-175 173 0
-176 178 0
175 -177 0
180 -178 0
177 -179 0
-180 182 0
-181 179 0
-166 167 0
179 166 0
-166 182 0
170 166 0
-168 -166 -169 0
168 169 -166 0
-168 -181 166 0
168 181 166 0
-166 -171 -170 0
170 -166 171 0
-166 -173 -172 0
-166 172 173 0
-175 -166 -174 0
-166 174 175 0
-176 -166 -177 0
176 177 -166 0
-166 -179 -178 0
178 -166 179 0
-166 -181 -180 0
-166 180 181 0
-184 186 0
183 -185 0
188 -186 0
185 -187 0
-188 190 0
-189 187 0
192 -190 0
-191 189 0
-192 194 0
191 -193 0
196 -194 0
193 -195 0
-196 198 0
-197 195 0
-166 195 0
166 183 0
186 -166 0
198 166 0
-184 -166 -197 0
184 -166 197 0
-184 166 -185 0
184 185 166 0
-186 -187 166 0
186 187 166 0
-189 -188 166 0
188 189 166 0
-191 -190 166 0
190 166 191 0
-192 166 -193 0
192 193 166 0
-194 -195 166 0
194 195 166 0
-197 -196 166 0
196 197 166 0
203 -201 0
200 -202 0
205 -203 0
202 -204 0
-205 207 0
-206 204 0
-207 209 0
-208 206 0
211 -209 0
208 -210 0
213 -211 0
210 -212 0
-213 215 0
-214 212 0
200 -199 0
214 199 0
-199 215 0
201 199 0
-199 -202 -201 0
-199 202 201 0
-199 -204 -203 0
-199 203 204 0
-199 -206 -205 0
-199 205 206 0
-208 -199 -207 0
208 -199 207 0
-199 -210 -209 0
-199 210 209 0
-199 -212 -211 0
-199 211 212 0
-199 -214 -213 0
-199 213 214 0
219 -217 0
216 -218 0
221 -219 0
218 -220 0
-221 223 0
-222 220 0
-223 225 0
-224 222 0
227 -225 0
224 -226 0
229 -227 0
226 -228 0
-229 231 0
-230 228 0
-199 230 0
216 199 0
-199 217 0
231 199 0
-217 -218 199 0
217 218 199 0
-220 -219 199 0
219 220 199 0
-222 -221 199 0
221 222 199 0
-224 -223 199 0
224 223 199 0
-225 -226 199 0
225 226 199 0
-228 -227 199 0
227 228 199 0
-230 -229 199 0
229 230 199 0
236 -234 0
233 -235 0
-236 238 0
-237 235 0
240 -238 0
-239 237 0
-240 242 0
239 -241 0
244 -242 0
241 -243 0
-244 246 0
-245 243 0
248 -246 0
-247 245 0
-232 237 0
232 237 0
-232 244 0
232 244 0
-232 -239 -234 0
-232 234 239 0
232 -239 -234 0
232 234 239 0
-232 -236 -241 0
-232 241 236 0
232 -236 -241 0
232 241 236 0
-232 -238 -243 0
-232 243 238 0
232 -238 -243 0
232 243 238 0
-232 -240 -245 0
-232 240 245 0
232 -240 -245 0
232 240 245 0
-232 -247 -242 0
-232 242 247 0
232 -247 -242 0
232 242 247 0
252 -250 0
249 -251 0
-252 254 0
-253 251 0
256 -254 0
-255 253 0
-256 258 0
255 -257 0
260 -258 0
257 -259 0
-260 262 0
259 -261 0
264 -262 0
-263 261 0
-232 253 0
232 253 0
-232 260 0
232 260 0
-232 -255 -250 0
-232 250 255 0
232 -255 -250 0
232 250 255 0
-232 -252 -257 0
-232 257 252 0
232 -252 -257 0
232 257 252 0
-232 -254 -259 0
-232 259 254 0
232 -254 -259 0
232 259 254 0
-232 -256 -261 0
-232 256 261 0
232 -256 -261 0
232 256 261 0
-232 -263 -258 0
-232 258 263 0
232 -263 -258 0
232 258 263 0
269 -267 0
266 -268 0
-269 271 0
-270 268 0
-271 273 0
-272 270 0
275 -273 0
272 -274 0
277 -275 0
274 -276 0
-277 279 0
-278 276 0
-279 281 0
-280 278 0
268 -265 0
265 274 0
279 -265 0
265 273 0
-270 -267 -265 0
267 270 -265 0
265 -276 -267 0
265 267 276 0
-272 -269 -265 0
272 269 -265 0
265 -278 -269 0
265 269 278 0
-271 -274 -265 0
274 271 -265 0
-280 265 -271 0
280 265 271 0
-273 -276 -265 0
273 276 -265 0
-278 -275 -265 0
275 278 -265 0
-280 -277 -265 0
280 277 -265 0
285 -283 0
282 -284 0
-285 287 0
-286 284 0
-287 289 0
-288 286 0
291 -289 0
288 -290 0
293 -291 0
290 -292 0
-293 295 0
-294 292 0
-295 297 0
-296 294 0
290 -265 0
265 284 0
289 -265 0
265 295 0
-292 -283 -265 0
283 292 -265 0
265 -286 -283 0
265 283 286 0
-294 -285 -265 0
285 294 -265 0
-288 265 -285 0
288 265 285 0
-296 -287 -265 0
296 287 -265 0
265 -287 -290 0
265 290 287 0
265 -292 -289 0
265 292 289 0
265 -294 -291 0
265 291 294 0
-296 265 -293 0
296 265 293 0
-300 302 0
299 -301 0
304 -302 0
-303 301 0
-304 306 0
303 -305 0
308 -306 0
305 -307 0
-308 310 0
307 -309 0
312 -310 0
-311 309 0
-312 314 0
311 -313 0
301 -298 0
298 307 0
312 -298 0
298 306 0
-303 -300 -298 0
300 -298 303 0
298 -309 -300 0
298 300 309 0
-302 -298 -305 0
302 305 -298 0
-302 298 -311 0
298 302 311 0
-304 -307 -298 0
304 307 -298 0
-304 298 -313 0
304 313 298 0
-309 -306 -298 0
306 309 -298 0
-311 -308 -298 0
308 -298 311 0
-310 -298 -313 0
310 313 -298 0
-316 318 0
315 -317 0
320 -318 0
-319 317 0
-320 322 0
319 -321 0
324 -322 0
321 -323 0
-324 326 0
323 -325 0
328 -326 0
-327 325 0
-328 330 0
327 -329 0
323 -298 0
298 317 0
322 -298 0
328 298 0
-325 -316 -298 0
316 325 -298 0
-319 298 -316 0
298 316 319 0
-327 -318 -298 0
318 -298 327 0
-318 298 -321 0
321 298 318 0
-320 -298 -329 0
320 329 -298 0
-320 298 -323 0
320 298 323 0
298 -325 -322 0
298 325 322 0
-327 298 -324 0
298 324 327 0
-326 298 -329 0
329 298 326 0
331 -3 -36 -35 -2 0
-37 331 -38 -5 -4 0
331 -40 -7 -6 -39 0
331 -9 -42 -41 -8 0
331 -44 -43 -11 -10 0
331 -46 -13 -12 -45 0
331 -48 -15 -14 -47 0
331 -50 -49 -16 -17 0
-52 -51 -19 -18 -331 0
-54 -21 -20 -53 -331 0
-56 -23 -22 -55 -331 0
-58 -57 -24 -25 -331 0
-60 -59 -27 -26 -331 0
-62 -29 -28 -61 -331 0
-64 -31 -30 -63 -331 0
-32 -331 -33 -66 -65 0
332 -69 -68 -3 -2 0
332 -71 -70 -5 -4 0
332 -73 -72 -7 -6 0
332 -75 -74 -9 -8 0
332 -77 -76 -11 -10 0
332 -79 -78 -13 -12 0
332 -81 -80 -15 -14 0
332 -83 -82 -17 -16 0
-85 -84 -19 -18 -332 0
-87 -86 -21 -20 -332 0
-89 -88 -23 -22 -332 0
-91 -90 -25 -24 -332 0
-93 -92 -27 -26 -332 0
-95 -94 -29 -28 -332 0
-96 -31 -30 -332 -97 0
-32 -332 -99 -98 -33 0
333 -102 -101 -3 -2 0
333 -104 -103 -5 -4 0
333 -106 -105 -7 -6 0
333 -108 -107 -9 -8 0
333 -110 -109 -11 -10 0
333 -112 -111 -13 -12 0
333 -114 -113 -15 -14 0
-116 333 -115 -17 -16 0
-118 -117 -19 -18 -333 0
-120 -119 -21 -20 -333 0
-122 -121 -23 -22 -333 0
-124 -123 -25 -24 -333 0
-126 -125 -27 -26 -333 0
-128 -127 -29 -28 -333 0
-31 -30 -333 -130 -129 0
-32 -333 -132 -131 -33 0
334 -135 -134 -3 -2 0
334 -137 -136 -5 -4 0
334 -139 -138 -7 -6 0
334 -141 -140 -9 -8 0
334 -143 -142 -11 -10 0
334 -145 -144 -13 -12 0
-147 -146 334 -15 -14 0
-149 -148 334 -17 -16 0
-151 -150 -19 -18 -334 0
-153 -152 -21 -20 -334 0
-155 -154 -23 -22 -334 0
-157 -156 -25 -24 -334 0
-159 -158 -27 -26 -334 0
-160 -29 -28 -334 -161 0
-31 -30 -334 -163 -162 0
-32 -334 -165 -164 -33 0
335 -168 -167 -3 -2 0
335 -170 -169 -5 -4 0
335 -172 -171 -7 -6 0
335 -174 -173 -9 -8 0
335 -176 -175 -11 -10 0
-178 335 -177 -13 -12 0
-180 -179 335 -15 -14 0
-182 -181 335 -16 -17 0
-184 -183 -19 -18 -335 0
-186 -185 -21 -20 -335 0
-188 -187 -23 -22 -335 0
-190 -189 -25 -24 -335 0
-192 -191 -27 -26 -335 0
-29 -28 -335 -194 -193 0
-31 -30 -335 -196 -195 0
-32 -335 -198 -197 -33 0
336 -201 -200 -3 -2 0
336 -203 -202 -5 -4 0
336 -205 -204 -7 -6 0
336 -207 -206 -9 -8 0
-209 -208 336 -11 -10 0
-211 -210 336 -13 -12 0
-213 -212 336 -15 -14 0
-215 -214 -17 -16 336 0
-217 -216 -19 -18 -336 0
-219 -218 -21 -20 -336 0
-221 -220 -23 -22 -336 0
-223 -222 -25 -24 -336 0
-224 -27 -26 -336 -225 0
-29 -28 -336 -227 -226 0
-31 -30 -336 -229 -228 0
-32 -336 -231 -230 -33 0
337 -234 -233 -3 -2 0
337 -236 -235 -5 -4 0
337 -238 -237 -7 -6 0
-240 337 -239 -9 -8 0
-242 -241 337 -11 -10 0
-244 -243 337 -13 -12 0
-246 -245 -15 -14 337 0
-248 -247 -17 -16 337 0
-250 -249 -19 -18 -337 0
-252 -251 -21 -20 -337 0
-254 -253 -23 -22 -337 0
-256 -255 -25 -24 -337 0
-27 -26 -337 -258 -257 0
-29 -28 -337 -260 -259 0
-31 -30 -337 -262 -261 0
-32 -337 -264 -263 -33 0
338 -267 -266 -3 -2 0
338 -269 -268 -5 -4 0
-271 338 -270 -7 -6 0
-273 -272 338 -9 -8 0
-275 -274 338 -11 -10 0
-277 -276 338 -13 -12 0
-279 -278 -15 338 -14 0
-281 -280 -17 -16 338 0
-283 -282 -19 -338 -18 0
-285 -284 -21 -20 -338 0
-287 -286 -23 -22 -338 0
-288 -25 -24 -338 -289 0
-27 -26 -338 -291 -290 0
-29 -28 -338 -293 -292 0
-31 -30 -338 -295 -294 0
-32 -338 -297 -296 -33 0
339 -300 -299 -3 -2 0
-302 339 -301 -5 -4 0
-304 -303 339 -7 -6 0
-306 -305 339 -9 -8 0
-308 -307 339 -11 -10 0
-310 -309 339 -13 -12 0
-312 -311 -15 -14 339 0
-314 -313 -17 -16 339 0
-316 -315 -19 -18 -339 0
-318 -317 -21 -20 -339 0
-320 -319 -23 -22 -339 0
-25 -24 -339 -322 -321 0
-27 -26 -339 -324 -323 0
-29 -28 -339 -326 -325 0
-31 -30 -339 -328 -327 0
-32 -339 -330 -329 -33 0
-36 340 -69 -68 -35 0
-38 340 -71 -70 -37 0
340 -72 -73 -40 -39 0
-41 340 -75 -74 -42 0
-77 -76 -44 -43 340 0
-79 -78 -46 -45 340 0
-81 -48 -47 -80 340 0
-83 -82 -50 -49 340 0
-85 -340 -84 -52 -51 0
-87 -86 -54 -53 -340 0
-89 -56 -55 -88 -340 0
-91 -90 -58 -57 -340 0
-93 -92 -60 -59 -340 0
-95 -94 -62 -61 -340 0
-64 -63 -96 -340 -97 0
-340 -66 -99 -98 -65 0
341 -102 -101 -36 -35 0
341 -104 -103 -38 -37 0
341 -106 -105 -40 -39 0
-41 -108 341 -107 -42 0
-110 -109 -44 341 -43 0
-112 -111 -46 -45 341 0
-114 -113 -48 -47 341 0
-116 -115 -50 -49 341 0
-118 -341 -117 -52 -51 0
-120 -119 -54 -53 -341 0
-122 -121 -56 -55 -341 0
-124 -123 -58 -57 -341 0
-126 -125 -60 -59 -341 0
-128 -127 -62 -61 -341 0
-64 -63 -341 -130 -129 0
-341 -132 -131 -66 -65 0
342 -135 -134 -36 -35 0
342 -137 -136 -38 -37 0
-139 -138 342 -40 -39 0
-41 -141 -140 342 -42 0
-143 -142 -44 -43 342 0
-145 -144 -46 -45 342 0
-147 -146 -48 -47 342 0
-149 -148 -50 -49 342 0
-151 -342 -150 -52 -51 0
-153 -152 -342 -54 -53 0
-155 -154 -56 -55 -342 0
-157 -156 -58 -57 -342 0
-159 -158 -60 -59 -342 0
-160 -62 -61 -342 -161 0
-64 -63 -342 -163 -162 0
-342 -165 -164 -66 -65 0
343 -168 -167 -36 -35 0
-169 -170 343 -38 -37 0
-172 -171 343 -40 -39 0
-174 -173 -41 -42 343 0
-176 -175 -44 -43 343 0
-178 -177 -46 -45 343 0
-180 -179 -48 -47 343 0
-182 -181 -50 -49 343 0
-184 -183 -343 -52 -51 0
-186 -185 -343 -54 -53 0
-188 -187 -56 -55 -343 0
-190 -189 -58 -57 -343 0
-192 -191 -60 -59 -343 0
-62 -61 -343 -194 -193 0
-64 -63 -343 -196 -195 0
-343 -198 -197 -66 -65 0
344 -201 -200 -36 -35 0
-203 -202 344 -38 -37 0
344 -205 -204 -40 -39 0
-207 -206 -42 -41 344 0
-209 -208 -44 -43 344 0
-211 -210 -46 -45 344 0
-213 -212 -48 -47 344 0
-215 -214 -50 -49 344 0
-217 -216 -344 -52 -51 0
-219 -218 -344 -54 -53 0
-221 -220 -56 -55 -344 0
-223 -222 -58 -57 -344 0
-224 -60 -59 -344 -225 0
-62 -61 -344 -227 -226 0
-64 -63 -344 -229 -228 0
-344 -231 -230 -66 -65 0
-234 -233 345 -36 -35 0
-236 -235 345 -38 -37 0
345 -238 -237 -40 -39 0
-240 -239 -42 -41 345 0
-242 -241 -44 -43 345 0
-244 -243 -46 -45 345 0
-246 -245 -48 -47 345 0
-248 -247 -50 -49 345 0
-250 -345 -249 -52 -51 0
-252 -251 -345 -54 -53 0
-254 -253 -345 -56 -55 0
-256 -255 -58 -345 -57 0
-60 -59 -345 -258 -257 0
-62 -61 -345 -260 -259 0
-64 -63 -345 -262 -261 0
-345 -264 -263 -66 -65 0
-267 -266 346 -36 -35 0
346 -269 -268 -38 -37 0
-271 -270 -40 -39 346 0
-273 -272 -42 -41 346 0
-275 -274 -44 -43 346 0
-277 -276 -46 -45 346 0
-279 -278 -48 -47 346 0
-281 -280 -50 -49 346 0
-283 -346 -282 -52 -51 0
-285 -284 -346 -54 -53 0
-287 -286 -346 -56 -55 0
-288 -346 -58 -57 -289 0
-60 -59 -346 -291 -290 0
-62 -61 -346 -293 -292 0
-64 -63 -346 -295 -294 0
-346 -297 -296 -66 -65 0
-300 -299 347 -36 -35 0
-37 -302 -301 -38 347 0
-304 -303 -40 -39 347 0
-306 -305 -42 -41 347 0
-308 -307 -44 -43 347 0
-310 -309 -46 -45 347 0
-312 -311 -48 -47 347 0
-314 -313 -50 -49 347 0
-316 -315 -347 -52 -51 0
-318 -317 -347 -54 -53 0
-320 -319 -347 -56 -55 0
-347 -58 -57 -322 -321 0
-60 -347 -59 -324 -323 0
-62 -61 -347 -326 -325 0
-64 -63 -347 -328 -327 0
-347 -330 -329 -66 -65 0
-101 348 -102 -69 -68 0
-103 -104 -71 -70 348 0
-73 -106 -105 -72 348 0
-108 -75 -74 -107 348 0
-110 -77 -76 -109 348 0
-112 -79 -78 -111 348 0
-114 -113 -80 -81 348 0
-116 -83 -82 -115 348 0
-348 -118 -85 -84 -117 0
-348 -120 -87 -86 -119 0
-348 -122 -121 -88 -89 0
-348 -124 -91 -90 -123 0
-126 -93 -348 -92 -125 0
-128 -95 -94 -127 -348 0
-96 -348 -97 -130 -129 0
-348 -99 -132 -131 -98 0
-135 -134 -69 -68 349 0
-137 -136 -71 -70 349 0
-139 -138 -73 -72 349 0
-141 -140 -75 -74 349 0
-143 -142 -77 -76 349 0
-145 -144 -79 -78 349 0
-147 -146 -81 -80 349 0
-149 -148 -83 -82 349 0
-349 -151 -150 -85 -84 0
-349 -153 -152 -87 -86 0
-349 -155 -154 -89 -88 0
-349 -157 -156 -91 -90 0
-159 -158 -93 -92 -349 0
-160 -95 -94 -349 -161 0
-96 -349 -163 -162 -97 0
-349 -165 -164 -99 -98 0
-168 -167 -69 -68 350 0
-170 -169 -71 -70 350 0
-172 -171 -73 -72 350 0
-174 -173 -75 -74 350 0
-176 -175 -77 -76 350 0
-178 -177 -79 -78 350 0
-180 -179 -81 -80 350 0
-182 -181 -83 -82 350 0
-350 -184 -183 -85 -84 0
-350 -186 -185 -87 -86 0
-350 -188 -187 -89 -88 0
-350 -190 -189 -91 -90 0
-192 -191 -350 -93 -92 0
-95 -350 -94 -194 -193 0
-96 -350 -196 -195 -97 0
-350 -198 -197 -99 -98 0
-201 -200 -69 -68 351 0
-203 -202 -71 -70 351 0
-205 -204 -73 -72 351 0
-207 -206 -75 -74 351 0
-209 -208 -77 -76 351 0
-211 -210 -79 -78 351 0
-213 -212 -81 -80 351 0
-215 -214 -83 -82 351 0
-351 -217 -216 -85 -84 0
-351 -219 -218 -87 -86 0
-351 -221 -220 -89 -88 0
-223 -222 -351 -91 -90 0
-224 -351 -93 -92 -225 0
-95 -94 -351 -227 -226 0
-96 -351 -229 -228 -97 0
-351 -231 -230 -99 -98 0
352 -234 -233 -69 -68 0
352 -236 -235 -71 -70 0
352 -238 -237 -73 -72 0
352 -240 -239 -75 -74 0
352 -242 -241 -77 -76 0
352 -244 -243 -79 -78 0
352 -246 -245 -81 -80 0
352 -248 -247 -83 -82 0
-352 -250 -249 -85 -84 0
-352 -252 -251 -87 -86 0
-352 -254 -253 -89 -88 0
-256 -255 -352 -91 -90 0
-352 -93 -92 -258 -257 0
-352 -95 -94 -260 -259 0
-96 -352 -262 -261 -97 0
-352 -264 -263 -99 -98 0
353 -267 -266 -69 -68 0
353 -269 -268 -71 -70 0
353 -271 -270 -73 -72 0
353 -273 -272 -75 -74 0
353 -275 -274 -77 -76 0
353 -277 -276 -79 -78 0
353 -279 -278 -81 -80 0
353 -281 -280 -83 -82 0
-283 -282 -85 -84 -353 0
-285 -284 -87 -86 -353 0
-287 -286 -89 -88 -353 0
-288 -91 -90 -289 -353 0
-93 -92 -291 -290 -353 0
-95 -94 -293 -292 -353 0
-96 -97 -295 -294 -353 0
-297 -296 -99 -98 -353 0
354 -300 -299 -69 -68 0
354 -302 -301 -71 -70 0
354 -304 -303 -73 -72 0
354 -306 -305 -75 -74 0
354 -308 -307 -77 -76 0
354 -310 -309 -79 -78 0
354 -312 -311 -81 -80 0
354 -314 -313 -83 -82 0
-316 -315 -85 -84 -354 0
-318 -317 -87 -86 -354 0
-320 -319 -89 -88 -354 0
-91 -90 -322 -354 -321 0
-93 -92 -324 -323 -354 0
-95 -94 -326 -325 -354 0
-96 -328 -327 -354 -97 0
-98 -330 -329 -99 -354 0
355 -135 -102 -101 -134 0
355 -136 -137 -104 -103 0
355 -105 -139 -138 -106 0
355 -141 -140 -108 -107 0
355 -143 -110 -109 -142 0
355 -145 -112 -111 -144 0
355 -147 -146 -114 -113 0
355 -149 -148 -116 -115 0
-151 -118 -117 -150 -355 0
-153 -120 -119 -152 -355 0
-155 -154 -122 -121 -355 0
-157 -156 -124 -123 -355 0
-159 -126 -125 -158 -355 0
-128 -127 -160 -355 -161 0
-163 -130 -355 -162 -129 0
-355 -164 -165 -132 -131 0
356 -168 -167 -102 -101 0
356 -170 -169 -104 -103 0
356 -172 -171 -106 -105 0
356 -174 -173 -108 -107 0
356 -176 -175 -110 -109 0
356 -178 -177 -112 -111 0
356 -180 -179 -114 -113 0
356 -182 -181 -116 -115 0
-184 -183 -118 -117 -356 0
-186 -185 -120 -119 -356 0
-188 -187 -122 -121 -356 0
-190 -189 -124 -123 -356 0
-192 -191 -126 -125 -356 0
-128 -127 -356 -194 -193 0
-196 -356 -195 -130 -129 0
-132 -198 -197 -356 -131 0
357 -201 -200 -102 -101 0
357 -203 -202 -104 -103 0
357 -205 -204 -106 -105 0
357 -207 -206 -108 -107 0
357 -209 -208 -110 -109 0
357 -211 -210 -112 -111 0
357 -213 -212 -114 -113 0
357 -215 -214 -116 -115 0
-217 -216 -118 -117 -357 0
-219 -218 -120 -119 -357 0
-221 -220 -122 -121 -357 0
-223 -222 -124 -123 -357 0
-224 -126 -125 -357 -225 0
-128 -127 -357 -227 -226 0
-357 -229 -228 -130 -129 0
-231 -230 -357 -132 -131 0
358 -234 -233 -102 -101 0
358 -236 -235 -104 -103 0
358 -238 -237 -106 -105 0
358 -240 -239 -108 -107 0
358 -242 -241 -110 -109 0
358 -244 -243 -112 -111 0
358 -246 -245 -114 -113 0
358 -248 -247 -116 -115 0
-250 -249 -118 -117 -358 0
-252 -251 -120 -119 -358 0
-254 -253 -122 -121 -358 0
-256 -255 -124 -123 -358 0
-126 -125 -358 -258 -257 0
-128 -127 -358 -260 -259 0
-262 -358 -261 -130 -129 0
-264 -263 -358 -132 -131 0
359 -267 -266 -102 -101 0
359 -269 -268 -104 -103 0
359 -271 -270 -106 -105 0
359 -273 -272 -108 -107 0
359 -275 -274 -110 -109 0
359 -277 -276 -112 -111 0
359 -279 -278 -114 -113 0
359 -280 -281 -116 -115 0
-283 -282 -118 -117 -359 0
-285 -284 -120 -119 -359 0
-287 -286 -122 -121 -359 0
-288 -124 -123 -359 -289 0
-126 -125 -359 -291 -290 0
-128 -127 -359 -293 -292 0
-359 -295 -294 -130 -129 0
-297 -296 -359 -132 -131 0
360 -300 -299 -102 -101 0
360 -302 -301 -104 -103 0
360 -304 -303 -106 -105 0
360 -306 -305 -108 -107 0
360 -308 -307 -110 -109 0
360 -310 -309 -112 -111 0
-312 -311 360 -114 -113 0
-314 -313 360 -116 -115 0
-316 -315 -118 -117 -360 0
-318 -317 -120 -119 -360 0
-320 -319 -122 -121 -360 0
-124 -123 -360 -322 -321 0
-126 -125 -360 -324 -323 0
-128 -127 -360 -326 -325 0
-360 -328 -327 -130 -129 0
-330 -329 -360 -132 -131 0
-167 361 -168 -135 -134 0
361 -137 -170 -169 -136 0
361 -172 -171 -139 -138 0
361 -174 -173 -141 -140 0
361 -176 -143 -142 -175 0
361 -178 -177 -144 -145 0
361 -180 -179 -147 -146 0
361 -182 -181 -149 -148 0
-184 -151 -150 -183 -361 0
-186 -185 -152 -153 -361 0
-188 -187 -155 -154 -361 0
-190 -189 -157 -156 -361 0
-192 -159 -158 -191 -361 0
-160 -161 -361 -194 -193 0
-163 -361 -196 -195 -162 0
-165 -361 -198 -197 -164 0
362 -201 -200 -135 -134 0
362 -203 -202 -137 -136 0
362 -205 -204 -139 -138 0
362 -207 -206 -141 -140 0
362 -209 -208 -143 -142 0
362 -211 -210 -145 -144 0
362 -213 -212 -147 -146 0
-215 -214 -149 -148 362 0
-217 -216 -151 -150 -362 0
-219 -218 -153 -152 -362 0
-221 -220 -155 -154 -362 0
-223 -222 -157 -156 -362 0
-224 -159 -158 -362 -225 0
-160 -362 -227 -226 -161 0
-362 -229 -228 -163 -162 0
-362 -231 -230 -165 -164 0
363 -234 -233 -135 -134 0
363 -236 -235 -137 -136 0
363 -238 -237 -139 -138 0
363 -240 -239 -141 -140 0
363 -242 -241 -143 -142 0
363 -244 -243 -145 -144 0
-246 363 -245 -147 -146 0
-248 -247 -149 -148 363 0
-250 -249 -151 -150 -363 0
-252 -251 -153 -152 -363 0
-254 -253 -155 -154 -363 0
-256 -255 -157 -156 -363 0
-159 -158 -363 -258 -257 0
-160 -363 -260 -259 -161 0
-363 -262 -261 -163 -162 0
-363 -264 -263 -165 -164 0
364 -267 -266 -135 -134 0
364 -269 -268 -137 -136 0
364 -271 -270 -139 -138 0
364 -273 -272 -141 -140 0
364 -275 -274 -143 -142 0
-277 364 -276 -145 -144 0
-279 -278 364 -147 -146 0
-281 -280 -149 364 -148 0
-283 -282 -151 -150 -364 0
-285 -284 -153 -152 -364 0
-287 -286 -155 -154 -364 0
-288 -157 -156 -364 -289 0
-159 -158 -364 -291 -290 0
-160 -364 -293 -292 -161 0
-364 -295 -294 -163 -162 0
-364 -297 -296 -165 -164 0
365 -300 -299 -135 -134 0
365 -302 -301 -137 -136 0
365 -304 -303 -139 -138 0
365 -306 -305 -141 -140 0
-308 365 -307 -143 -142 0
-310 -309 365 -145 -144 0
-312 -311 365 -147 -146 0
-314 -313 -149 -148 365 0
-316 -315 -151 -150 -365 0
-318 -317 -153 -152 -365 0
-320 -319 -155 -154 -365 0
-157 -156 -365 -322 -321 0
-159 -158 -365 -324 -323 0
-160 -365 -326 -325 -161 0
-365 -328 -327 -163 -162 0
-365 -330 -329 -165 -164 0
366 -200 -201 -168 -167 0
366 -169 -203 -202 -170 0
366 -205 -172 -171 -204 0
366 -207 -174 -173 -206 0
366 -209 -176 -175 -208 0
-211 -210 366 -178 -177 0
-213 -180 -179 366 -212 0
-215 -182 -181 -214 366 0
-217 -184 -183 -216 -366 0
-219 -218 -186 -185 -366 0
-221 -188 -187 -220 -366 0
-223 -190 -189 -222 -366 0
-192 -191 -224 -366 -225 0
-194 -366 -227 -226 -193 0
-196 -366 -229 -228 -195 0
-230 -366 -231 -198 -197 0
367 -234 -233 -168 -167 0
367 -236 -235 -170 -169 0
367 -238 -237 -172 -171 0
367 -240 -239 -174 -173 0
-242 367 -176 -175 -241 0
-244 -243 -178 367 -177 0
-246 -245 -180 -179 367 0
-248 -247 -182 -181 367 0
-250 -249 -184 -183 -367 0
-252 -251 -186 -185 -367 0
-254 -253 -188 -187 -367 0
-256 -255 -190 -189 -367 0
-192 -191 -367 -258 -257 0
-367 -260 -259 -194 -193 0
-367 -262 -261 -196 -195 0
-367 -264 -263 -198 -197 0
368 -267 -266 -168 -167 0
368 -269 -268 -170 -169 0
368 -271 -270 -172 -171 0
-273 -272 368 -174 -173 0
-275 -274 -176 -175 368 0
-277 -276 -178 -177 368 0
-279 -278 -180 -179 368 0
-281 -280 -182 -181 368 0
-283 -282 -184 -183 -368 0
-285 -284 -186 -185 -368 0
-287 -286 -188 -187 -368 0
-288 -190 -189 -368 -289 0
-192 -191 -368 -291 -290 0
-368 -293 -292 -194 -193 0
-368 -295 -294 -196 -195 0
-368 -297 -296 -198 -197 0
369 -300 -299 -168 -167 0
369 -302 -301 -170 -169 0
-304 -303 369 -172 -171 0
-306 -305 369 -174 -173 0
-308 -307 -176 -175 369 0
-310 -309 -178 -177 369 0
-312 -311 -180 -179 369 0
-314 -313 -182 -181 369 0
-316 -315 -184 -183 -369 0
-318 -317 -186 -185 -369 0
-320 -319 -188 -187 -369 0
-190 -189 -369 -322 -321 0
-192 -191 -369 -324 -323 0
-369 -326 -325 -194 -193 0
-369 -328 -327 -196 -195 0
-369 -330 -329 -198 -197 0
-201 370 -234 -233 -200 0
370 -236 -235 -203 -202 0
-238 -237 -205 -204 370 0
-240 -207 -206 -239 370 0
-242 -241 -208 -209 370 0
-244 -243 -211 -210 370 0
-246 -245 -213 -212 370 0
-248 -215 -214 -247 370 0
-250 -249 -216 -217 -370 0
-252 -251 -219 -218 -370 0
-254 -253 -221 -220 -370 0
-256 -223 -222 -255 -370 0
-224 -370 -225 -258 -257 0
-227 -370 -260 -259 -226 0
-370 -262 -229 -228 -261 0
-370 -263 -264 -231 -230 0
371 -267 -266 -201 -200 0
371 -269 -268 -203 -202 0
-271 -270 371 -205 -204 0
-273 -272 -207 -206 371 0
-275 -274 -209 -208 371 0
-277 -276 -211 -210 371 0
-279 -278 -213 -212 371 0
-281 -280 -215 -214 371 0
-283 -282 -217 -216 -371 0
-285 -284 -219 -218 -371 0
-287 -286 -221 -220 -371 0
-288 -223 -222 -371 -289 0
-224 -371 -291 -290 -225 0
-371 -293 -292 -227 -226 0
-371 -295 -294 -229 -228 0
-371 -297 -296 -231 -230 0
372 -300 -299 -201 -200 0
-302 -301 372 -203 -202 0
-304 -303 -205 -204 372 0
-306 -305 -207 -206 372 0
-308 -307 -209 -208 372 0
-310 -309 -211 -210 372 0
-312 -311 -213 -212 372 0
-314 -313 -215 -214 372 0
-316 -315 -217 -216 -372 0
-318 -317 -219 -218 -372 0
-320 -319 -221 -220 -372 0
-223 -222 -372 -322 -321 0
-224 -372 -324 -323 -225 0
-372 -326 -325 -227 -226 0
-372 -328 -327 -229 -228 0
-372 -330 -329 -231 -230 0
-233 373 -266 -267 -234 0
-269 -268 373 -236 -235 0
-271 -270 -238 -237 373 0
-273 -240 -239 -272 373 0
-275 -274 -242 -241 373 0
-277 -276 -244 -243 373 0
-279 -278 -246 -245 373 0
-281 -248 -247 -280 373 0
-283 -282 -250 -249 -373 0
-285 -284 -252 -251 -373 0
-287 -286 -254 -253 -373 0
-256 -255 -288 -373 -289 0
-373 -258 -291 -290 -257 0
-292 -373 -293 -260 -259 0
-373 -295 -262 -261 -294 0
-373 -296 -297 -264 -263 0
-233 -300 -299 374 -234 0
-302 -301 -236 -235 374 0
-304 -303 -238 -237 374 0
-306 -305 -240 -239 374 0
-308 -307 -242 -241 374 0
-310 -309 -244 -243 374 0
-312 -311 -246 -245 374 0
-314 -313 -248 -247 374 0
-316 -315 -250 -249 -374 0
-318 -317 -252 -251 -374 0
-320 -319 -254 -253 -374 0
-256 -255 -374 -322 -321 0
-374 -324 -323 -258 -257 0
-374 -326 -325 -260 -259 0
-374 -328 -327 -262 -261 0
-374 -330 -329 -264 -263 0
-300 -299 -267 -266 375 0
-302 -269 -268 -301 375 0
-304 -271 -270 -303 375 0
-306 -305 -272 -273 375 0
-308 -307 -275 -274 375 0
-310 -277 -276 -309 375 0
-312 -279 -278 -311 375 0
-314 -313 -280 -281 375 0
-316 -315 -283 -282 -375 0
-318 -285 -284 -317 -375 0
-320 -287 -286 -319 -375 0
-288 -375 -289 -322 -321 0
-323 -375 -324 -291 -290 0
-375 -326 -293 -292 -325 0
-375 -327 -328 -295 -294 0
-375 -297 -330 -329 -296 0
